Minimize
  4 x_crab_cakes + 6 x_lobster_roll
Subject To
  c1: 5 x_crab_cakes + 8 x_lobster_roll >= 80
  c2: 7 x_crab_cakes + 4 x_lobster_roll >= 100
  c3: 0.6 x_lobster_roll - 0.4 x_crab_cakes <= 0
End